25° run output:
{
    "Function": "kroB750.tsp",
    "Problem dimension": [
        579,
        223,
        380,
        134,
        72,
        735,
        340,
        238,
        675,
        654,
        44,
        687,
        361,
        31,
        466,
        713,
        114,
        294,
        450,
        77,
        241,
        545,
        617,
        106,
        235,
        27,
        553,
        356,
        260,
        85,
        472,
        693,
        681,
        158,
        105,
        528,
        668,
        516,
        732,
        683,
        478,
        263,
        203,
        624,
        314,
        422,
        561,
        255,
        246,
        41,
        434,
        207,
        53,
        286,
        638,
        467,
        582,
        45,
        591,
        604,
        4,
        310,
        154,
        487,
        490,
        254,
        728,
        395,
        368,
        622,
        213,
        152,
        734,
        666,
        328,
        18,
        702,
        23,
        47,
        369,
        19,
        707,
        525,
        376,
        244,
        221,
        447,
        153,
        404,
        315,
        698,
        34,
        458,
        749,
        317,
        680,
        401,
        60,
        355,
        633,
        366,
        464,
        373,
        112,
        124,
        527,
        370,
        550,
        127,
        686,
        189,
        711,
        641,
        603,
        549,
        66,
        334,
        585,
        75,
        639,
        13,
        0,
        9,
        536,
        724,
        214,
        56,
        11,
        690,
        22,
        679,
        74,
        135,
        442,
        460,
        130,
        157,
        58,
        71,
        651,
        300,
        556,
        298,
        80,
        37,
        54,
        382,
        563,
        145,
        110,
        39,
        664,
        232,
        492,
        21,
        571,
        325,
        183,
        228,
        48,
        55,
        593,
        120,
        222,
        695,
        616,
        445,
        662,
        236,
        733,
        322,
        644,
        349,
        677,
        437,
        170,
        163,
        392,
        383,
        533,
        673,
        657,
        274,
        270,
        341,
        151,
        122,
        336,
        419,
        607,
        147,
        489,
        365,
        275,
        259,
        280,
        444,
        343,
        712,
        253,
        20,
        435,
        180,
        290,
        475,
        348,
        302,
        562,
        118,
        15,
        293,
        592,
        669,
        397,
        92,
        519,
        542,
        737,
        363,
        188,
        49,
        115,
        484,
        544,
        412,
        136,
        407,
        637,
        551,
        193,
        526,
        648,
        623,
        372,
        276,
        421,
        352,
        357,
        96,
        129,
        564,
        360,
        643,
        201,
        358,
        43,
        30,
        565,
        570,
        530,
        93,
        240,
        521,
        440,
        381,
        427,
        621,
        746,
        319,
        498,
        393,
        229,
        501,
        374,
        76,
        109,
        342,
        305,
        173,
        309,
        402,
        212,
        568,
        51,
        82,
        57,
        104,
        640,
        378,
        611,
        285,
        457,
        311,
        424,
        3,
        730,
        164,
        744,
        252,
        243,
        125,
        486,
        308,
        409,
        448,
        52,
        710,
        251,
        513,
        84,
        167,
        736,
        619,
        586,
        176,
        535,
        303,
        476,
        50,
        17,
        660,
        518,
        177,
        142,
        452,
        608,
        652,
        554,
        721,
        95,
        540,
        14,
        646,
        649,
        574,
        28,
        86,
        220,
        245,
        375,
        73,
        694,
        273,
        438,
        745,
        103,
        25,
        512,
        451,
        384,
        199,
        148,
        580,
        596,
        329,
        121,
        454,
        289,
        425,
        567,
        386,
        219,
        741,
        38,
        36,
        491,
        313,
        144,
        507,
        731,
        90,
        420,
        461,
        192,
        269,
        471,
        234,
        581,
        747,
        418,
        704,
        291,
        670,
        606,
        727,
        522,
        645,
        692,
        297,
        16,
        610,
        509,
        321,
        656,
        332,
        396,
        264,
        150,
        249,
        239,
        225,
        566,
        333,
        573,
        208,
        700,
        576,
        720,
        614,
        78,
        316,
        696,
        185,
        661,
        548,
        99,
        63,
        674,
        684,
        483,
        102,
        156,
        439,
        347,
        89,
        663,
        414,
        46,
        141,
        496,
        699,
        718,
        344,
        612,
        155,
        432,
        186,
        330,
        426,
        537,
        301,
        546,
        248,
        387,
        64,
        126,
        131,
        299,
        262,
        307,
        429,
        182,
        268,
        613,
        463,
        722,
        477,
        202,
        706,
        474,
        283,
        738,
        345,
        493,
        503,
        33,
        132,
        629,
        626,
        97,
        410,
        635,
        494,
        400,
        211,
        160,
        408,
        691,
        258,
        166,
        172,
        331,
        250,
        416,
        678,
        388,
        184,
        206,
        729,
        62,
        470,
        40,
        65,
        364,
        406,
        83,
        665,
        226,
        282,
        697,
        379,
        446,
        169,
        514,
        636,
        634,
        335,
        69,
        196,
        715,
        642,
        748,
        391,
        149,
        61,
        456,
        482,
        339,
        224,
        1,
        146,
        517,
        708,
        703,
        510,
        216,
        559,
        462,
        594,
        304,
        296,
        217,
        719,
        547,
        398,
        469,
        197,
        588,
        231,
        740,
        399,
        318,
        113,
        5,
        601,
        538,
        481,
        281,
        502,
        359,
        589,
        505,
        671,
        423,
        459,
        590,
        198,
        709,
        35,
        605,
        504,
        353,
        595,
        161,
        175,
        337,
        575,
        685,
        128,
        230,
        256,
        295,
        433,
        726,
        350,
        658,
        725,
        630,
        320,
        143,
        12,
        428,
        367,
        272,
        191,
        529,
        385,
        628,
        578,
        42,
        194,
        572,
        209,
        620,
        659,
        688,
        430,
        168,
        655,
        267,
        140,
        577,
        597,
        81,
        615,
        261,
        583,
        584,
        98,
        473,
        271,
        362,
        200,
        539,
        411,
        394,
        598,
        520,
        717,
        204,
        257,
        555,
        8,
        215,
        609,
        413,
        195,
        515,
        70,
        495,
        508,
        541,
        431,
        499,
        24,
        653,
        650,
        354,
        324,
        716,
        557,
        600,
        287,
        558,
        91,
        338,
        205,
        667,
        94,
        165,
        523,
        543,
        599,
        171,
        497,
        138,
        107,
        100,
        524,
        119,
        278,
        346,
        701,
        632,
        465,
        587,
        117,
        26,
        87,
        101,
        306,
        326,
        511,
        29,
        139,
        312,
        689,
        323,
        6,
        569,
        190,
        277,
        68,
        181,
        351,
        602,
        266,
        443,
        284,
        631,
        618,
        187,
        647,
        159,
        742,
        88,
        441,
        627,
        743,
        162,
        288,
        292,
        552,
        210,
        227,
        479,
        403,
        405,
        417,
        672,
        534,
        179,
        625,
        59,
        67,
        389,
        468,
        455,
        714,
        682,
        377,
        506,
        531,
        2,
        133,
        449,
        500,
        79,
        415,
        10,
        390,
        560,
        265,
        111,
        676,
        485,
        32,
        123,
        532,
        174,
        453,
        327,
        7,
        233,
        108,
        480,
        723,
        371,
        705,
        247,
        218,
        279,
        237,
        242,
        436,
        116,
        739,
        137,
        178,
        488
    ],
    "Global Optimum": 0,
    "Algorithm": "Genetic algorithm",
    "Parameters": {
        "population": 30,
        "offspring": 30,
        "mutation probability": 0.0013333333333333333,
        "crossover probability": 0.9
    },
    "Fitness": 1037831,
    "Solution": [
        579,
        223,
        380,
        134,
        72,
        735,
        340,
        238,
        675,
        654,
        44,
        687,
        361,
        31,
        466,
        713,
        114,
        294,
        450,
        77,
        241,
        545,
        617,
        106,
        235,
        27,
        553,
        356,
        260,
        85,
        472,
        693,
        681,
        158,
        105,
        528,
        668,
        516,
        732,
        683,
        478,
        263,
        203,
        624,
        314,
        422,
        561,
        255,
        246,
        41,
        434,
        207,
        53,
        286,
        638,
        467,
        582,
        45,
        591,
        604,
        4,
        310,
        154,
        487,
        490,
        254,
        728,
        395,
        368,
        622,
        213,
        152,
        734,
        666,
        328,
        18,
        702,
        23,
        47,
        369,
        19,
        707,
        525,
        376,
        244,
        221,
        447,
        153,
        404,
        315,
        698,
        34,
        458,
        749,
        317,
        680,
        401,
        60,
        355,
        633,
        366,
        464,
        373,
        112,
        124,
        527,
        370,
        550,
        127,
        686,
        189,
        711,
        641,
        603,
        549,
        66,
        334,
        585,
        75,
        639,
        13,
        0,
        9,
        536,
        724,
        214,
        56,
        11,
        690,
        22,
        679,
        74,
        135,
        442,
        460,
        130,
        157,
        58,
        71,
        651,
        300,
        556,
        298,
        80,
        37,
        54,
        382,
        563,
        145,
        110,
        39,
        664,
        232,
        492,
        21,
        571,
        325,
        183,
        228,
        48,
        55,
        593,
        120,
        222,
        695,
        616,
        445,
        662,
        236,
        733,
        322,
        644,
        349,
        677,
        437,
        170,
        163,
        392,
        383,
        533,
        673,
        657,
        274,
        270,
        341,
        151,
        122,
        336,
        419,
        607,
        147,
        489,
        365,
        275,
        259,
        280,
        444,
        343,
        712,
        253,
        20,
        435,
        180,
        290,
        475,
        348,
        302,
        562,
        118,
        15,
        293,
        592,
        669,
        397,
        92,
        519,
        542,
        737,
        363,
        188,
        49,
        115,
        484,
        544,
        412,
        136,
        407,
        637,
        551,
        193,
        526,
        648,
        623,
        372,
        276,
        421,
        352,
        357,
        96,
        129,
        564,
        360,
        643,
        201,
        358,
        43,
        30,
        565,
        570,
        530,
        93,
        240,
        521,
        440,
        381,
        427,
        621,
        746,
        319,
        498,
        393,
        229,
        501,
        374,
        76,
        109,
        342,
        305,
        173,
        309,
        402,
        212,
        568,
        51,
        82,
        57,
        104,
        640,
        378,
        611,
        285,
        457,
        311,
        424,
        3,
        730,
        164,
        744,
        252,
        243,
        125,
        486,
        308,
        409,
        448,
        52,
        710,
        251,
        513,
        84,
        167,
        736,
        619,
        586,
        176,
        535,
        303,
        476,
        50,
        17,
        660,
        518,
        177,
        142,
        452,
        608,
        652,
        554,
        721,
        95,
        540,
        14,
        646,
        649,
        574,
        28,
        86,
        220,
        245,
        375,
        73,
        694,
        273,
        438,
        745,
        103,
        25,
        512,
        451,
        384,
        199,
        148,
        580,
        596,
        329,
        121,
        454,
        289,
        425,
        567,
        386,
        219,
        741,
        38,
        36,
        491,
        313,
        144,
        507,
        731,
        90,
        420,
        461,
        192,
        269,
        471,
        234,
        581,
        747,
        418,
        704,
        291,
        670,
        606,
        727,
        522,
        645,
        692,
        297,
        16,
        610,
        509,
        321,
        656,
        332,
        396,
        264,
        150,
        249,
        239,
        225,
        566,
        333,
        573,
        208,
        700,
        576,
        720,
        614,
        78,
        316,
        696,
        185,
        661,
        548,
        99,
        63,
        674,
        684,
        483,
        102,
        156,
        439,
        347,
        89,
        663,
        414,
        46,
        141,
        496,
        699,
        718,
        344,
        612,
        155,
        432,
        186,
        330,
        426,
        537,
        301,
        546,
        248,
        387,
        64,
        126,
        131,
        299,
        262,
        307,
        429,
        182,
        268,
        613,
        463,
        722,
        477,
        202,
        706,
        474,
        283,
        738,
        345,
        493,
        503,
        33,
        132,
        629,
        626,
        97,
        410,
        635,
        494,
        400,
        211,
        160,
        408,
        691,
        258,
        166,
        172,
        331,
        250,
        416,
        678,
        388,
        184,
        206,
        729,
        62,
        470,
        40,
        65,
        364,
        406,
        83,
        665,
        226,
        282,
        697,
        379,
        446,
        169,
        514,
        636,
        634,
        335,
        69,
        196,
        715,
        642,
        748,
        391,
        149,
        61,
        456,
        482,
        339,
        224,
        1,
        146,
        517,
        708,
        703,
        510,
        216,
        559,
        462,
        594,
        304,
        296,
        217,
        719,
        547,
        398,
        469,
        197,
        588,
        231,
        740,
        399,
        318,
        113,
        5,
        601,
        538,
        481,
        281,
        502,
        359,
        589,
        505,
        671,
        423,
        459,
        590,
        198,
        709,
        35,
        605,
        504,
        353,
        595,
        161,
        175,
        337,
        575,
        685,
        128,
        230,
        256,
        295,
        433,
        726,
        350,
        658,
        725,
        630,
        320,
        143,
        12,
        428,
        367,
        272,
        191,
        529,
        385,
        628,
        578,
        42,
        194,
        572,
        209,
        620,
        659,
        688,
        430,
        168,
        655,
        267,
        140,
        577,
        597,
        81,
        615,
        261,
        583,
        584,
        98,
        473,
        271,
        362,
        200,
        539,
        411,
        394,
        598,
        520,
        717,
        204,
        257,
        555,
        8,
        215,
        609,
        413,
        195,
        515,
        70,
        495,
        508,
        541,
        431,
        499,
        24,
        653,
        650,
        354,
        324,
        716,
        557,
        600,
        287,
        558,
        91,
        338,
        205,
        667,
        94,
        165,
        523,
        543,
        599,
        171,
        497,
        138,
        107,
        100,
        524,
        119,
        278,
        346,
        701,
        632,
        465,
        587,
        117,
        26,
        87,
        101,
        306,
        326,
        511,
        29,
        139,
        312,
        689,
        323,
        6,
        569,
        190,
        277,
        68,
        181,
        351,
        602,
        266,
        443,
        284,
        631,
        618,
        187,
        647,
        159,
        742,
        88,
        441,
        627,
        743,
        162,
        288,
        292,
        552,
        210,
        227,
        479,
        403,
        405,
        417,
        672,
        534,
        179,
        625,
        59,
        67,
        389,
        468,
        455,
        714,
        682,
        377,
        506,
        531,
        2,
        133,
        449,
        500,
        79,
        415,
        10,
        390,
        560,
        265,
        111,
        676,
        485,
        32,
        123,
        532,
        174,
        453,
        327,
        7,
        233,
        108,
        480,
        723,
        371,
        705,
        247,
        218,
        279,
        237,
        242,
        436,
        116,
        739,
        137,
        178,
        488
    ],
    "Nb of functions evaluations": 50010,
    "Computational time in seconds": 828.6131348609924,
    "Stopping criterion in evaluations": 50000
}